4	143	143	0	0	0
5	144	103	0	0	0
6	236	184	0	16	16
7	279	240	0	15	15
8	267	244	0	16	16
9	261	225	0	32	32
10	385	236	0	16	16
11	438	308	0	203	203
12	377	332	0	16	16
13	541	337	0	31	31
14	551	411	0	31	31
15	675	389	0	47	47
16	560	443	0	31	31
17	656	450	0	94	94
18	634	458	0	187	187
19	875	521	0	78	78
